# create_dataset.in
# LAMMPS input file for liquid Argon MD simulation using LJ potential
# Extracted from create_dataset.py

# Setup
units metal
boundary p p p
atom_style atomic

# Variables (adjust these as needed)
variable mass equal 39.9
variable epsilon equal 0.01032  # 0.238 kcal/mol converted to eV
variable sigma equal 3.4
variable cutoff equal 8.5       # 2.5 * sigma
variable skin equal 2.0
variable num_replicate equal 2  # approximately (256/4)^(1/3)
variable cell_param equal 5.46     # cell/num_replicate for density 0.844
variable temp_obj equal 10
variable temp_init equal 10  
variable temp_final equal 10
variable press_obj equal 137.3
variable time_step equal 0.01078
variable num_step equal 200000
variable run_step equal 200000
variable dump_freq equal 100
variable log_freq equal 200
variable npt_thermo_freq equal 0.02
variable nvt_thermo_freq equal 0.02
variable npt_baro_freq equal 0.2
variable num_chains equal 5
variable num_mtk equal 5
variable random_seed equal 12345

# Create lattice and atoms
lattice fcc ${cell_param}
region box block 0 ${num_replicate} 0 ${num_replicate} 0 ${num_replicate}
create_box 1 box
create_atoms 1 box

# Set mass and initial velocity
mass 1 ${mass}
velocity all create ${temp_obj} ${random_seed} dist gaussian mom yes rot yes

# Define force field (LJ potential)
pair_style lj/cut ${cutoff}
pair_coeff 1 1 ${epsilon} ${sigma} ${cutoff}

# Neighbor settings
neighbor ${skin} bin
neigh_modify check yes

# Thermodynamic output
thermo ${log_freq}
timestep ${time_step}

# Phase 1: NPT ensemble
fix 1 all npt temp ${temp_obj} ${temp_obj} ${npt_thermo_freq} tchain ${num_chains} tloop ${num_mtk} iso ${press_obj} ${press_obj} ${npt_baro_freq}
run ${num_step}
unfix 1

# Phase 2: NVT ensemble (equilibration)
fix 1 all nvt temp ${temp_obj} ${temp_obj} ${nvt_thermo_freq} tchain ${num_chains} tloop ${num_mtk}
run ${num_step}
unfix 1

# Phase 3: NVT ensemble (production run with output)
# Setup dumps
compute pe_atom all pe/atom
compute ke_atom all ke/atom
dump 1 all custom ${dump_freq} dump.lj.* id type x y z vx vy vz fx fy fz c_pe_atom
dump 2 all custom ${dump_freq} dump.lj id type xu yu zu vx vy vz c_pe_atom

# Setup energy output
thermo ${log_freq}
reset_timestep 0
thermo_style custom step pe
variable sstep equal step
variable ppt equal pe
fix extra all print ${dump_freq} "${sstep} ${ppt}" file etotal.txt screen no

# Final NVT run with temperature ramp
fix 1 all nvt temp ${temp_init} ${temp_final} ${nvt_thermo_freq} tchain ${num_chains} tloop ${num_mtk}
run ${run_step}
